Optimal - objective value 20623.00000000
      1 x_0_1                    1                       0
      9 x_1_3                    1                       0
     14 x_2_2                    1                       0
     22 x_3_4                    1                       0
     24 x_4_0                    1                       0
     35 x_5_5                    1                       0
     63 y_0_1_1_3                1                    3456
     67 y_0_1_2_2                1                    4270
     74 y_0_1_3_4                1                    2204
     76 y_0_1_4_0                1                    3500
     85 y_0_1_5_5                1                    2976
    248 y_1_3_2_2                1                     144
    254 y_1_3_3_4                1                     680
    256 y_1_3_4_0                1                     474
    265 y_1_3_5_5                1                      83
    339 y_2_2_3_4                1                     679
    341 y_2_2_4_0                1                     531
    350 y_2_2_5_5                1                     390
    436 y_3_4_4_0                1                     532
    445 y_3_4_5_5                1                     648
    460 y_4_0_5_5                1                      56
